33D32945 STP File, STP Format Version 1.0
Section Comment
Name    "cc6-2p"
Creator "I. Rosseti, M. Poggi de Aragao, C.C. Ribeiro, E. Uchoa, and R.F.Werneck"
Remark  "Instances on Code Covering graphs"
End

SECTION Graph
Nodes 64
Edges 192
E 2 1 201
E 3 1 103
E 4 2 207
E 4 3 103
E 5 1 106
E 6 2 210
E 6 5 109
E 7 3 207
E 7 5 201
E 8 4 109
E 8 6 103
E 8 7 210
E 9 1 110
E 10 2 201
E 10 9 106
E 11 3 103
E 11 9 108
E 12 4 101
E 12 10 104
E 12 11 105
E 13 5 109
E 13 9 106
E 14 6 107
E 14 10 107
E 14 13 108
E 15 7 210
E 15 11 103
E 15 13 107
E 16 8 208
E 16 12 210
E 16 14 204
E 16 15 203
E 17 1 108
E 18 2 205
E 18 17 105
E 19 3 104
E 19 17 104
E 20 4 108
E 20 18 108
E 20 19 110
E 21 5 104
E 21 17 104
E 22 6 103
E 22 18 102
E 22 21 109
E 23 7 203
E 23 19 110
E 23 21 106
E 24 8 203
E 24 20 205
E 24 22 207
E 24 23 205
E 25 9 110
E 25 17 104
E 26 10 109
E 26 18 110
E 26 25 101
E 27 11 202
E 27 19 205
E 27 25 206
E 28 12 105
E 28 20 101
E 28 26 105
E 28 27 204
E 29 13 203
E 29 21 203
E 29 25 205
E 30 14 106
E 30 22 108
E 30 26 106
E 30 29 202
E 31 15 105
E 31 23 109
E 31 27 210
E 31 29 203
E 32 16 204
E 32 24 205
E 32 28 110
E 32 30 109
E 32 31 106
E 33 1 107
E 34 2 208
E 34 33 107
E 35 3 110
E 35 33 108
E 36 4 210
E 36 34 201
E 36 35 206
E 37 5 108
E 37 33 105
E 38 6 205
E 38 34 206
E 38 37 205
E 39 7 204
E 39 35 109
E 39 37 102
E 40 8 110
E 40 36 203
E 40 38 203
E 40 39 110
E 41 9 203
E 41 33 207
E 42 10 107
E 42 34 110
E 42 41 202
E 43 11 101
E 43 35 101
E 43 41 201
E 44 12 101
E 44 36 204
E 44 42 106
E 44 43 104
E 45 13 107
E 45 37 108
E 45 41 201
E 46 14 107
E 46 38 207
E 46 42 106
E 46 45 108
E 47 15 103
E 47 39 110
E 47 43 106
E 47 45 106
E 48 16 206
E 48 40 104
E 48 44 104
E 48 46 107
E 48 47 106
E 49 17 201
E 49 33 209
E 50 18 103
E 50 34 104
E 50 49 205
E 51 19 102
E 51 35 103
E 51 49 207
E 52 20 105
E 52 36 203
E 52 50 107
E 52 51 101
E 53 21 106
E 53 37 108
E 53 49 204
E 54 22 104
E 54 38 204
E 54 50 107
E 54 53 108
E 55 23 102
E 55 39 106
E 55 51 110
E 55 53 105
E 56 24 201
E 56 40 107
E 56 52 102
E 56 54 110
E 56 55 103
E 57 25 108
E 57 41 208
E 57 49 205
E 58 26 202
E 58 42 201
E 58 50 204
E 58 57 207
E 59 27 205
E 59 43 110
E 59 51 110
E 59 57 103
E 60 28 108
E 60 44 106
E 60 52 104
E 60 58 207
E 60 59 107
E 61 29 201
E 61 45 106
E 61 53 101
E 61 57 108
E 62 30 103
E 62 46 110
E 62 54 109
E 62 58 207
E 62 61 101
E 63 31 201
E 63 47 206
E 63 55 209
E 63 59 202
E 63 61 208
E 64 32 106
E 64 48 103
E 64 56 101
E 64 60 106
E 64 62 103
E 64 63 206
End

Section Terminals
Terminals 12
T 2
T 7
T 16
T 24
T 27
T 29
T 36
T 38
T 41
T 49
T 58
T 63
End

EOF
